
******************************************************************************
This program contains Ipopt, a library for large-scale nonlinear optimization.
 Ipopt is released as open source code under the Eclipse Public License (EPL).
         For more information visit http://projects.coin-or.org/Ipopt
******************************************************************************

This is Ipopt version 3.12.6, running with linear solver ma57.

Number of nonzeros in equality constraint Jacobian...:       62
Number of nonzeros in inequality constraint Jacobian.:        2
Number of nonzeros in Lagrangian Hessian.............:       56

Reallocating memory for MA57: lfact (908)
Total number of variables............................:       18
                     variables with only lower bounds:       14
                variables with lower and upper bounds:        0
                     variables with only upper bounds:        0
Total number of equality constraints.................:        8
Total number of inequality constraints...............:        1
        inequality constraints with only lower bounds:        0
   inequality constraints with lower and upper bounds:        0
        inequality constraints with only upper bounds:        1

iter    objective    inf_pr   inf_du lg(mu)  ||d||  lg(rg) alpha_du alpha_pr  ls
   0  1.9325249e+01 5.90e+02 2.58e+00  -1.0 0.00e+00    -  0.00e+00 0.00e+00   0
   1  2.5975334e+01 5.87e+02 5.38e+01  -1.0 9.86e+03    -  8.57e-05 5.10e-03h  1
   2  3.0424696e+01 5.85e+02 5.37e+01  -1.0 2.86e+02    -  5.78e-04 1.76e-03h  1
   3  3.6666610e+01 5.84e+02 5.36e+01  -1.0 2.19e+02    -  1.36e-03 2.37e-03h  1
   4  4.9186749e+01 5.81e+02 5.33e+01  -1.0 2.15e+02    -  4.28e-03 4.80e-03h  1
   5  7.4093170e+01 5.75e+02 5.28e+01  -1.0 2.03e+02    -  1.06e-02 9.66e-03h  1
   6  9.8446408e+01 5.70e+02 5.23e+01  -1.0 1.95e+02    -  2.62e-02 9.65e-03h  1
   7  1.7661999e+02 5.52e+02 5.05e+01  -1.0 1.89e+02    -  4.76e-02 3.16e-02h  1
   8  2.0701449e+02 5.44e+02 4.99e+01  -1.0 1.66e+02    -  9.95e-02 1.32e-02h  1
   9  1.3178418e+03 2.57e+02 2.44e+02  -1.0 1.63e+02    -  1.34e-03 4.89e-01h  2
iter    objective    inf_pr   inf_du lg(mu)  ||d||  lg(rg) alpha_du alpha_pr  ls
  10  1.3187157e+03 2.56e+02 8.90e+02  -1.0 7.74e+01   2.0 1.88e-02 9.35e-04h  1
  11  1.3251059e+03 2.55e+02 1.19e+05  -1.0 8.10e+01   2.4 9.37e-01 6.46e-03h  1
  12  1.4086338e+03 2.32e+02 1.08e+05  -1.0 8.08e+01   1.9 8.74e-02 8.61e-02h  1
  13  1.4095826e+03 2.32e+02 1.13e+05  -1.0 7.47e+01   2.4 5.20e-01 1.07e-03h  1
  14  1.4484330e+03 2.23e+02 1.72e+04  -1.0 7.42e+01    -  8.34e-01 3.93e-02h  1
  15  2.4016462e+03 5.85e+01 5.63e+03  -1.0 7.12e+01    -  9.11e-01 1.00e+00h  1
  16  2.3959741e+03 2.23e-01 4.16e+03  -1.0 8.71e-01   1.9 2.34e-01 1.00e+00h  1
  17  2.3957492e+03 1.35e-03 1.74e+02  -1.0 1.71e-01   1.4 9.42e-01 1.00e+00f  1
  18  2.3757795e+03 4.81e-01 1.84e+02  -1.0 4.17e+01    -  4.36e-01 1.00e-01f  1
  19  2.2476996e+03 3.82e+01 7.17e+00  -1.0 3.60e+01    -  1.00e+00 1.00e+00f  1
iter    objective    inf_pr   inf_du lg(mu)  ||d||  lg(rg) alpha_du alpha_pr  ls
  20  2.2561541e+03 3.23e+01 8.41e+01  -1.0 4.06e+00   0.9 3.99e-01 1.54e-01h  1
  21  2.2603541e+03 2.94e+01 6.79e+02  -1.0 3.35e+00   1.4 9.98e-01 8.80e-02h  1
  22  2.3066045e+03 7.44e-01 1.13e+02  -1.0 5.57e+00    -  9.20e-01 1.00e+00h  1
  23  2.3019072e+03 1.84e+00 3.21e+01  -1.0 8.84e+00    -  3.63e-01 9.17e-01f  1
  24  2.3021926e+03 9.70e-01 2.18e+01  -1.0 1.87e-01   0.9 1.00e+00 4.72e-01h  1
  25  2.3033056e+03 2.29e-02 5.63e-01  -1.0 1.03e+00    -  1.00e+00 1.00e+00h  1
  26  2.3026704e+03 1.43e-03 2.09e-02  -1.7 9.75e-02    -  1.00e+00 1.00e+00f  1
  27  2.3025494e+03 8.77e-06 3.71e-03  -3.8 1.07e-02    -  1.00e+00 1.00e+00f  1
Reallocating memory for MA57: lfact (1041)
  28  2.3025494e+03 2.34e-09 8.08e-08  -3.8 1.06e-04    -  1.00e+00 1.00e+00h  1
  29  2.3025485e+03 6.16e-10 2.09e-07  -5.7 8.27e-05    -  1.00e+00 1.00e+00f  1
iter    objective    inf_pr   inf_du lg(mu)  ||d||  lg(rg) alpha_du alpha_pr  ls
  30  2.3025485e+03 3.41e-13 3.23e-11  -8.6 1.03e-06    -  1.00e+00 1.00e+00h  1

Number of Iterations....: 30

                                   (scaled)                 (unscaled)
Objective...............:   2.3025484883581398e+03    2.3025484883581398e+03
Dual infeasibility......:   3.2283509199260152e-11    3.2283509199260152e-11
Constraint violation....:   3.4106051316484809e-13    3.4106051316484809e-13
Complementarity.........:   2.5066685258551810e-09    2.5066685258551810e-09
Overall NLP error.......:   2.5066685258551810e-09    2.5066685258551810e-09


Number of objective function evaluations             = 33
Number of objective gradient evaluations             = 31
Number of equality constraint evaluations            = 33
Number of inequality constraint evaluations          = 33
Number of equality constraint Jacobian evaluations   = 31
Number of inequality constraint Jacobian evaluations = 31
Number of Lagrangian Hessian evaluations             = 30
Total CPU secs in IPOPT (w/o function evaluations)   =      0.010
Total CPU secs in NLP function evaluations           =      0.000

EXIT: Optimal Solution Found.

************************ CUTEst statistics ************************


 Package used            :  IPOPT
 Problem                 :  TENBARS1  
 # variables             =              18
 # constraints           =               9
 # objective functions   =        0.6500000E+02
 # objective gradients   =        0.3200000E+02
 # objective Hessians    =        0.3100000E+02
 # Hessian-vector prdct  =        0.0000000E+00
 # constraints functions =        0.6600000E+02
 # constraints gradients =        0.3300000E+02
 # constraints Hessians  =        0.3100000E+02
 Exit code               =               0
 Final f                 =   0.2302548E+04
 Set up time             =            0.00 seconds
 Solve time              =            0.04 seconds


******************************************************************

System Time =       0.0109999999 s.
